solution status: optimal solution found
objective value:                                   16
one.thingy.devices[0].thingy.v4_y                    6 	(obj:0)
one.thingy.devices[0].thingy.v4_z                    3 	(obj:0)
one.thingy.devices[3].thingy.v4_y                    4 	(obj:0)
one.thingy.devices[3].thingy.v4_z                    1 	(obj:0)
one.ctrl_a[1].hole_y                                2 	(obj:0)
one.ctrl_a[1].hole_z                                3 	(obj:0)
one.ctrl_a[3].hole_y                                2 	(obj:0)
one.ctrl_a[3].hole_z                               -1 	(obj:0)
one.ctrl_a[3].flush_y                               2 	(obj:0)
one.ctrl_a[3].flush_z                              -3 	(obj:0)
one.thingy.devices[2].thingy.v4_y                    4 	(obj:0)
one.thingy.devices[2].thingy.v4_z                    2 	(obj:0)
one.thingy.devices[1].thingy.v4_y                    6 	(obj:0)
one.thingy.devices[1].thingy.v4_z                    4 	(obj:0)
one.ctrl_a[1].flush_z                              -3 	(obj:0)
one.ctrl_a[2].hole_y                                2 	(obj:0)
one.ctrl_a[2].hole_z                                1 	(obj:0)
one.ctrl_a[2].flush_y                               1 	(obj:0)
one.ctrl_a[2].flush_z                              -3 	(obj:0)
x25                                                 2 	(obj:1)
x26                                                 2 	(obj:1)
x30                                                 1 	(obj:1)
x31                                                 2 	(obj:1)
x32                                                 1 	(obj:1)
x43                                                 2 	(obj:1)
x44                                                 2 	(obj:1)
x47                                                 2 	(obj:1)
x50                                                 2 	(obj:1)
